24
13 22
13 16
13 20
13 1
13 14
13 7
13 18
22 4
22 14
22 11
22 6
22 5
22 8
3 15
3 1
3 7
3 20
3 16
3 12
3 8
15 10
15 19
15 7
15 18
15 17
15 21
6 9
6 21
6 23
6 12
6 4
6 0
9 21
9 11
9 14
9 1
9 23
9 19
14 17
14 8
14 12
14 10
17 23
17 8
17 2
17 18
17 21
10 11
10 0
10 18
10 4
10 23
11 23
11 4
11 2
11 20
1 4
1 19
1 12
1 7
8 23
8 4
8 7
23 5
4 12
7 12
7 5
12 18
21 16
21 20
21 19
0 16
0 18
0 5
0 19
0 2
16 2
16 19
16 5
19 2
2 5
2 20
5 20
20 18
